
--- Job hw2-3.gms Start 09/22/23 15:56:09 44.3.0 8b8fb1cb WEX-WEI x86 64bit/MS Windows
--- Applying:
    D:\GAMS\44\gmsprmNT.txt
--- GAMS Parameters defined
    Input C:\Users\shaox\OneDrive\Documents\GAMS\Studio\workspace\hw2\hw2-3.gms
    PageSize 0
    ScrDir C:\Users\shaox\OneDrive\Documents\GAMS\Studio\workspace\hw2\225a\
    SysDir D:\GAMS\44\
    LogOption 3
    ErrMsg 1
    ErrorLog 99
    IDE 1
    LstTitleLeftAligned 1
Licensee: Introduction to Optimization (CS/ISyE/ECE 524) G230906|0002AS-GEN
          UW-Madison, CS Dept., Fall 2023, Prof. Ferris              DCE850
          C:\Users\shaox\OneDrive\Documents\GAMS\gamslice.txt
          License Admin: Michael C. Ferris, ferris@cs.wisc.edu             
          Course license for use within the course and related course work
Processor information: 1 socket(s), 8 core(s), and 16 thread(s) available
GAMS 44.3.0   Copyright (C) 1987-2023 GAMS Development. All rights reserved
--- Starting compilation
--- hw2-3.gms(47) 3 Mb
--- Starting execution: elapsed 0:00:00.025
--- Generating LP model forest
--- hw2-3.gms(47) 4 Mb
---   9 rows  17 columns  49 non-zeroes
--- Range statistics (absolute non-zero finite values)
--- RHS       [min, max] : [ 6.000E+02, 2.250E+04] - Zero values observed as well
--- Bound     [min, max] : [        NA,        NA] - Zero values observed as well
--- Matrix    [min, max] : [ 1.000E+00, 2.800E+01]
--- Executing CPLEX (Solvelink=2): elapsed 0:00:00.049

IBM ILOG CPLEX   44.3.0 8b8fb1cb Sep 1, 2023           WEI x86 64bit/MS Window

--- GAMS/CPLEX licensed for continuous and discrete problems.
--- GMO setup time: 0.00s
--- GMO memory 0.50 Mb (peak 0.50 Mb)
--- Dictionary memory 0.00 Mb
--- Cplex 22.1.1.0 link memory 0.00 Mb (peak 0.00 Mb)
--- Starting Cplex

Version identifier: 22.1.1.0 | 2022-11-27 | 9160aff4d
CPXPARAM_Advance                                 0
CPXPARAM_Simplex_Display                         2
CPXPARAM_Threads                                 1
CPXPARAM_MIP_Display                             4
CPXPARAM_MIP_Pool_Capacity                       0
CPXPARAM_MIP_Tolerances_AbsMIPGap                0
Tried aggregator 1 time.
LP Presolve eliminated 0 rows and 1 columns.
Reduced LP has 8 rows, 16 columns, and 32 nonzeros.
Presolve time = 0.00 sec. (0.01 ticks)
Initializing dual steep norms . . .

Iteration      Dual Objective            In Variable           Out Variable
     1          101505.882353              grow(1,P)      con_tree(P) slack
     2           96363.025210              grow(1,S)      con_tree(S) slack
     3           95779.691877              grow(4,H)      con_tree(H) slack
     4           95355.704100              grow(4,S)              grow(1,W)
     5           95031.188725              grow(2,S)              grow(4,W)

--- LP status (1): optimal.
--- Cplex Time: 0.00sec (det. 0.02 ticks)


Optimal solution found
Objective:        95031.188725

--- Reading solution for model forest
*** Status: Normal completion
--- Job hw2-3.gms Stop 09/22/23 15:56:09 elapsed 0:00:00.201
